
Gurobi 12.0.2 (win64) logging started Wed May 21 23:01:13 2025

Set parameter LogFile to value "instancias/Teste\I_6_2_S_1-9_2.log"
Gurobi Optimizer version 12.0.2 build v12.0.2rc0 (win64 - Windows 11.0 (26100.2))

CPU model: 11th Gen Intel(R) Core(TM) i3-1115G4 @ 3.00GHz, instruction set [SSE2|AVX|AVX2|AVX512]
Thread count: 2 physical cores, 4 logical processors, using up to 4 threads

Non-default parameters:
TimeLimit  300

Optimize a model with 172 rows, 87 columns and 758 nonzeros
Model fingerprint: 0xe7830ab0
Variable types: 15 continuous, 72 integer (0 binary)
Coefficient statistics:
  Matrix range     [1e+00, 1e+03]
  Objective range  [1e+00, 1e+00]
  Bounds range     [1e+00, 1e+00]
  RHS range        [1e+00, 1e+03]
Presolve removed 14 rows and 2 columns
Presolve time: 0.01s
Presolved: 158 rows, 85 columns, 732 nonzeros
Variable types: 13 continuous, 72 integer (72 binary)
Found heuristic solution: objective 211.0000000
Found heuristic solution: objective 207.0000000
Found heuristic solution: objective 195.0000000

Root relaxation: objective 0.000000e+00, 59 iterations, 0.00 seconds (0.00 work units)

    Nodes    |    Current Node    |     Objective Bounds      |     Work
 Expl Unexpl |  Obj  Depth IntInf | Incumbent    BestBd   Gap | It/Node Time

     0     0    0.00000    0   15  195.00000    0.00000   100%     -    0s
     0     0    0.00000    0   16  195.00000    0.00000   100%     -    0s
     0     0    0.00000    0   14  195.00000    0.00000   100%     -    0s
     0     0    0.47724    0   25  195.00000    0.47724   100%     -    0s
     0     0    6.08696    0   28  195.00000    6.08696  96.9%     -    0s
     0     0   15.16883    0   19  195.00000   15.16883  92.2%     -    0s
H    0     0                     176.0000000   20.41837  88.4%     -    0s
     0     0   20.41837    0   23  176.00000   20.41837  88.4%     -    0s
     0     0   59.00000    0    8  176.00000   59.00000  66.5%     -    0s
H    0     0                     174.0000000   59.00000  66.1%     -    0s
     0     0   59.00000    0   12  174.00000   59.00000  66.1%     -    0s
     0     0   79.00000    0   12  174.00000   79.00000  54.6%     -    0s
H    0     0                     156.0000000   79.00000  49.4%     -    0s
     0     0   79.00000    0   10  156.00000   79.00000  49.4%     -    0s
     0     0   79.00000    0   12  156.00000   79.00000  49.4%     -    0s
     0     0   79.00000    0   12  156.00000   79.00000  49.4%     -    0s
     0     0   79.00000    0    4  156.00000   79.00000  49.4%     -    0s
     0     0   79.00000    0   12  156.00000   79.00000  49.4%     -    0s
     0     0   79.00000    0    9  156.00000   79.00000  49.4%     -    0s
     0     0   79.00000    0    9  156.00000   79.00000  49.4%     -    0s
     0     2   79.00000    0    9  156.00000   79.00000  49.4%     -    0s
H    3     6                     152.0000000   79.00000  48.0%   8.3    0s
H   74    47                     150.0000000   79.00000  47.3%   8.0    0s

Cutting planes:
  Learned: 24
  Gomory: 4
  Cover: 29
  Implied bound: 49
  MIR: 22
  Inf proof: 14
  Zero half: 3
  RLT: 7
  Relax-and-lift: 19
  BQP: 2
  PSD: 11

Explored 1440 nodes (8622 simplex iterations) in 0.49 seconds (0.17 work units)
Thread count was 4 (of 4 available processors)

Solution count 8: 150 152 156 ... 211

Optimal solution found (tolerance 1.00e-04)
Best objective 1.500000000000e+02, best bound 1.500000000000e+02, gap 0.0000%

Gurobi 12.0.2 (win64) logging started Thu May 22 08:50:44 2025

Set parameter LogFile to value "instancias/Teste\I_6_2_S_1-9_2.log"
Gurobi Optimizer version 12.0.2 build v12.0.2rc0 (win64 - Windows 11.0 (26100.2))

CPU model: 11th Gen Intel(R) Core(TM) i3-1115G4 @ 3.00GHz, instruction set [SSE2|AVX|AVX2|AVX512]
Thread count: 2 physical cores, 4 logical processors, using up to 4 threads

Non-default parameters:
TimeLimit  300

Optimize a model with 172 rows, 87 columns and 758 nonzeros
Model fingerprint: 0xe7830ab0
Variable types: 15 continuous, 72 integer (0 binary)
Coefficient statistics:
  Matrix range     [1e+00, 1e+03]
  Objective range  [1e+00, 1e+00]
  Bounds range     [1e+00, 1e+00]
  RHS range        [1e+00, 1e+03]
Presolve removed 14 rows and 2 columns
Presolve time: 0.01s
Presolved: 158 rows, 85 columns, 732 nonzeros
Variable types: 13 continuous, 72 integer (72 binary)
Found heuristic solution: objective 211.0000000
Found heuristic solution: objective 207.0000000
Found heuristic solution: objective 195.0000000

Root relaxation: objective 0.000000e+00, 59 iterations, 0.01 seconds (0.00 work units)

    Nodes    |    Current Node    |     Objective Bounds      |     Work
 Expl Unexpl |  Obj  Depth IntInf | Incumbent    BestBd   Gap | It/Node Time

     0     0    0.00000    0   15  195.00000    0.00000   100%     -    0s
     0     0    0.00000    0   16  195.00000    0.00000   100%     -    0s
     0     0    0.00000    0   14  195.00000    0.00000   100%     -    0s
     0     0    0.47724    0   25  195.00000    0.47724   100%     -    0s
     0     0    6.08696    0   28  195.00000    6.08696  96.9%     -    0s
     0     0   15.16883    0   19  195.00000   15.16883  92.2%     -    0s
H    0     0                     176.0000000   20.41837  88.4%     -    0s
     0     0   20.41837    0   23  176.00000   20.41837  88.4%     -    0s
     0     0   59.00000    0    8  176.00000   59.00000  66.5%     -    0s
H    0     0                     174.0000000   59.00000  66.1%     -    0s
     0     0   59.00000    0   12  174.00000   59.00000  66.1%     -    0s
     0     0   79.00000    0   12  174.00000   79.00000  54.6%     -    0s
H    0     0                     156.0000000   79.00000  49.4%     -    0s
     0     0   79.00000    0   10  156.00000   79.00000  49.4%     -    0s
     0     0   79.00000    0   12  156.00000   79.00000  49.4%     -    1s
     0     0   79.00000    0   12  156.00000   79.00000  49.4%     -    1s
     0     0   79.00000    0    4  156.00000   79.00000  49.4%     -    1s
     0     0   79.00000    0   12  156.00000   79.00000  49.4%     -    1s
     0     0   79.00000    0    9  156.00000   79.00000  49.4%     -    1s
     0     0   79.00000    0    9  156.00000   79.00000  49.4%     -    1s
     0     2   79.00000    0    9  156.00000   79.00000  49.4%     -    1s
H    3     6                     152.0000000   79.00000  48.0%   8.3    1s
H   74    47                     150.0000000   79.00000  47.3%   8.0    1s

Cutting planes:
  Learned: 24
  Gomory: 4
  Cover: 29
  Implied bound: 49
  MIR: 22
  Inf proof: 14
  Zero half: 3
  RLT: 7
  Relax-and-lift: 19
  BQP: 2
  PSD: 11

Explored 1440 nodes (8622 simplex iterations) in 2.01 seconds (0.17 work units)
Thread count was 4 (of 4 available processors)

Solution count 8: 150 152 156 ... 211

Optimal solution found (tolerance 1.00e-04)
Best objective 1.500000000000e+02, best bound 1.500000000000e+02, gap 0.0000%
